lps/t_sol_ini_ID000M003J004_ZintFalse_liao_desig.lp
\ This file has been generated by DOcplex
\ ENCODING=ISO-8859-1
\Problem name: liao_desig

Minimize
 obj: cmax
Subject To
 c1: x_1_0 - x_0_0 >= 1
 c2: x_2_0 - x_1_0 >= 3
 c3: x_0_1 - x_1_1 >= 8
 c4: x_2_1 - x_0_1 >= 5
 c5: x_2_2 - x_0_2 >= 5
 c6: x_1_2 - x_2_2 >= 4
 c7: x_0_3 - x_2_3 >= 4
 c8: x_1_3 - x_0_3 >= 10
 c9: x_0_0 - x_0_1 + 66 z_0_0_1 - q_0_0_1 = 5
 c10: x_0_0 - x_0_2 + 66 z_0_0_2 - q_0_0_2 = 5
 c11: x_0_0 - x_0_3 + 66 z_0_0_3 - q_0_0_3 = 10
 c12: x_0_1 - x_0_2 + 66 z_0_1_2 - q_0_1_2 = 5
 c13: x_0_1 - x_0_3 + 66 z_0_1_3 - q_0_1_3 = 10
 c14: x_0_2 - x_0_3 + 66 z_0_2_3 - q_0_2_3 = 10
 c15: x_1_0 - x_1_1 + 66 z_1_0_1 - q_1_0_1 = 8
 c16: x_1_0 - x_1_2 + 66 z_1_0_2 - q_1_0_2 = 8
 c17: x_1_0 - x_1_3 + 66 z_1_0_3 - q_1_0_3 = 6
 c18: x_1_1 - x_1_2 + 66 z_1_1_2 - q_1_1_2 = 8
 c19: x_1_1 - x_1_3 + 66 z_1_1_3 - q_1_1_3 = 6
 c20: x_1_2 - x_1_3 + 66 z_1_2_3 - q_1_2_3 = 6
 c21: x_2_0 - x_2_1 + 66 z_2_0_1 - q_2_0_1 = 10
 c22: x_2_0 - x_2_2 + 66 z_2_0_2 - q_2_0_2 = 4
 c23: x_2_0 - x_2_3 + 66 z_2_0_3 - q_2_0_3 = 4
 c24: x_2_1 - x_2_2 + 66 z_2_1_2 - q_2_1_2 = 4
 c25: x_2_1 - x_2_3 + 66 z_2_1_3 - q_2_1_3 = 4
 c26: x_2_2 - x_2_3 + 66 z_2_2_3 - q_2_2_3 = 4
 c27: x_0_0 + 5 z_0_0_1 + 5 z_0_0_2 + 10 z_0_0_3 >= 20
 c28: x_0_1 - z_0_0_1 + 5 z_0_1_2 + 10 z_0_1_3 >= 15
 c29: x_0_2 - z_0_0_2 - 5 z_0_1_2 + 10 z_0_2_3 >= 10
 c30: x_0_3 - z_0_0_3 - 5 z_0_1_3 - 5 z_0_2_3 >= 0
 c31: x_1_0 + 8 z_1_0_1 + 8 z_1_0_2 + 6 z_1_0_3 >= 22
 c32: x_1_1 - 3 z_1_0_1 + 8 z_1_1_2 + 6 z_1_1_3 >= 14
 c33: x_1_2 - 3 z_1_0_2 - 8 z_1_1_2 + 6 z_1_2_3 >= 6
 c34: x_1_3 - 3 z_1_0_3 - 8 z_1_1_3 - 8 z_1_2_3 >= 0
 c35: x_2_0 + 10 z_2_0_1 + 4 z_2_0_2 + 4 z_2_0_3 >= 18
 c36: x_2_1 - 2 z_2_0_1 + 4 z_2_1_2 + 4 z_2_1_3 >= 8
 c37: x_2_2 - 2 z_2_0_2 - 10 z_2_1_2 + 4 z_2_2_3 >= 4
 c38: x_2_3 - 2 z_2_0_3 - 10 z_2_1_3 - 4 z_2_2_3 >= 0
 c39: x_0_1 - z_0_0_1 >= 0
 c40: x_0_0 + 13 z_0_0_1 >= 13
 c41: x_0_2 - z_0_0_2 >= 0
 c42: x_0_0 + 5 z_0_0_2 >= 5
 c43: x_0_2 - 13 z_0_1_2 >= 0
 c44: x_0_1 + 5 z_0_1_2 >= 5
 c45: x_0_3 - z_0_0_3 >= 0
 c46: x_0_0 + 14 z_0_0_3 >= 14
 c47: x_0_3 - 13 z_0_1_3 >= 0
 c48: x_0_1 + 14 z_0_1_3 >= 14
 c49: x_0_3 - 5 z_0_2_3 >= 0
 c50: x_0_2 + 14 z_0_2_3 >= 14
 c51: x_1_1 - 4 z_1_0_1 >= 0
 c52: x_1_0 + 8 z_1_0_1 >= 8
 c53: x_1_2 - 4 z_1_0_2 >= 0
 c54: x_1_0 + 17 z_1_0_2 >= 17
 c55: x_1_2 - 8 z_1_1_2 >= 0
 c56: x_1_1 + 17 z_1_1_2 >= 17
 c57: x_1_3 - 4 z_1_0_3 >= 0
 c58: x_1_0 + 20 z_1_0_3 >= 20
 c59: x_1_3 - 8 z_1_1_3 >= 0
 c60: x_1_1 + 20 z_1_1_3 >= 20
 c61: x_1_3 - 17 z_1_2_3 >= 0
 c62: x_1_2 + 20 z_1_2_3 >= 20
 c63: x_2_1 - 6 z_2_0_1 >= 0
 c64: x_2_0 + 23 z_2_0_1 >= 23
 c65: x_2_2 - 6 z_2_0_2 >= 0
 c66: x_2_0 + 9 z_2_0_2 >= 9
 c67: x_2_2 - 23 z_2_1_2 >= 0
 c68: x_2_1 + 9 z_2_1_2 >= 9
 c69: x_2_3 - 6 z_2_0_3 >= 0
 c70: x_2_0 + 4 z_2_0_3 >= 4
 c71: x_2_3 - 23 z_2_1_3 >= 0
 c72: x_2_1 + 4 z_2_1_3 >= 4
 c73: x_2_3 - 9 z_2_2_3 >= 0
 c74: x_2_2 + 4 z_2_2_3 >= 4
 c75: cmax - x_0_0 - 15 z_0_0_1 >= 1
 c76: cmax - x_0_1 + 6 z_0_0_1 >= 11
 c77: cmax - x_0_0 - 17 z_0_0_2 >= 1
 c78: cmax - x_0_2 + 6 z_0_0_2 >= 11
 c79: cmax - x_0_0 - 16 z_0_0_3 >= 1
 c80: cmax - x_0_3 + 6 z_0_0_3 >= 16
 c81: cmax - x_0_1 - 17 z_0_1_2 >= 5
 c82: cmax - x_0_2 + 15 z_0_1_2 >= 20
 c83: cmax - x_0_1 - 16 z_0_1_3 >= 5
 c84: cmax - x_0_3 + 15 z_0_1_3 >= 25
 c85: cmax - x_0_2 - 16 z_0_2_3 >= 5
 c86: cmax - x_0_3 + 17 z_0_2_3 >= 27
 c87: cmax - x_1_0 - 23 z_1_0_1 >= 3
 c88: cmax - x_1_1 + 5 z_1_0_1 >= 13
 c89: cmax - x_1_0 - 8 z_1_0_2 >= 3
 c90: cmax - x_1_2 + 5 z_1_0_2 >= 13
 c91: cmax - x_1_0 - 6 z_1_0_3 >= 3
 c92: cmax - x_1_3 + 5 z_1_0_3 >= 11
 c93: cmax - x_1_1 - 8 z_1_1_2 >= 8
 c94: cmax - x_1_2 + 23 z_1_1_2 >= 31
 c95: cmax - x_1_1 - 6 z_1_1_3 >= 8
 c96: cmax - x_1_3 + 23 z_1_1_3 >= 29
 c97: cmax - x_1_2 - 6 z_1_2_3 >= 8
 c98: cmax - x_1_3 + 8 z_1_2_3 >= 14
 c99: cmax - x_2_0 - 10 z_2_0_1 >= 2
 c100: cmax - x_2_1 + 2 z_2_0_1 >= 12
 c101: cmax - x_2_0 - 12 z_2_0_2 >= 2
 c102: cmax - x_2_2 + 2 z_2_0_2 >= 6
 c103: cmax - x_2_0 - 20 z_2_0_3 >= 2
 c104: cmax - x_2_3 + 2 z_2_0_3 >= 6
 c105: cmax - x_2_1 - 12 z_2_1_2 >= 10
 c106: cmax - x_2_2 + 10 z_2_1_2 >= 14
 c107: cmax - x_2_1 - 20 z_2_1_3 >= 10
 c108: cmax - x_2_3 + 10 z_2_1_3 >= 14
 c109: cmax - x_2_2 - 20 z_2_2_3 >= 4
 c110: cmax - x_2_3 + 12 z_2_2_3 >= 16
 c111: cmax - x_0_0 >= 6
 c112: cmax - x_0_1 >= 15
 c113: cmax - x_0_2 >= 17
 c114: cmax - x_0_3 >= 16
 c115: cmax - x_1_0 >= 5
 c116: cmax - x_1_1 >= 23
 c117: cmax - x_1_2 >= 8
 c118: cmax - x_1_3 >= 6
 c119: cmax - x_2_0 >= 2
 c120: cmax - x_2_1 >= 10
 c121: cmax - x_2_2 >= 12
 c122: cmax - x_2_3 >= 20

Bounds
       z_0_0_1 <= 1
       z_0_0_2 <= 1
       z_0_0_3 <= 1
       z_0_1_2 <= 1
       z_0_1_3 <= 1
       z_0_2_3 <= 1
       z_1_0_1 <= 1
       z_1_0_2 <= 1
       z_1_0_3 <= 1
       z_1_1_2 <= 1
       z_1_1_3 <= 1
       z_1_2_3 <= 1
       z_2_0_1 <= 1
       z_2_0_2 <= 1
       z_2_0_3 <= 1
       z_2_1_2 <= 1
       z_2_1_3 <= 1
       z_2_2_3 <= 1
 29 <= cmax
       q_0_0_1 <= 60
       q_0_0_2 <= 60
       q_0_0_3 <= 55
       q_0_1_2 <= 56
       q_0_1_3 <= 51
       q_0_2_3 <= 51
       q_1_0_1 <= 55
       q_1_0_2 <= 55
       q_1_0_3 <= 57
       q_1_1_2 <= 50
       q_1_1_3 <= 52
       q_1_2_3 <= 52
       q_2_0_1 <= 54
       q_2_0_2 <= 60
       q_2_0_3 <= 60
       q_2_1_2 <= 52
       q_2_1_3 <= 52
       q_2_2_3 <= 58
End
